N = 5;
H = 5;
T = 2;

avail = array3d(1..N, 1..H, 1..T, [7, 5, 1, 2, 2, 4, 9, 3, 4, 7, 0, 7, 8, 3, 4, 6, 0, 5, 6, 2, 9, 6, 1, 3, 5, 9, 9, 3, 10, 2, 8, 7, 1, 3, 5, 7, 0, 3, 8, 10, 1, 10, 4, 0, 8, 8, 5, 10, 1, 0]);

r = array2d(1..H, 1..T, [1, 0, 0, 1, 1, 1, 1, 2, 2, 1]);
